(set-logic QF_S)
(declare-fun T_8 () Bool)
(declare-fun T_9 () Bool)
(declare-fun T_SELECT_1 () Bool)
(declare-fun I0_11 () Int)
(declare-fun PCTEMP_LHS_1 () Int)
(declare-fun T0_11 () String)
(declare-fun T1_11 () String)
(declare-fun T2_11 () String)
(declare-fun T3_11 () String)
(declare-fun T4_11 () String)
(declare-fun T5_11 () String)
(declare-fun T_6 () String)
(assert (= T_6 (str.++ T0_11 T1_11)))
(assert (= T1_11 (str.++ T2_11 T3_11)))
(assert (= T2_11 (str.++ T4_11 T5_11)))
(assert (not (str.in.re T4_11 (str.to.re "utm_id="))))
(assert (= T5_11 "utm_id="))
(assert T_9)
(assert (= T_9 (not T_8)))
(assert (= T_8 (< (- 1) PCTEMP_LHS_1)))
(assert (= PCTEMP_LHS_1 (+ I0_11 0)))
(assert (= T_SELECT_1 (not (= PCTEMP_LHS_1 (- 1)))))
(assert (= 0 (str.len T0_11))) ; len 0
(assert (= I0_11 (str.len T4_11))) ; len 1
(assert T_SELECT_1)
(check-sat)
